
  22   10
  10   10   10   10   10   10   10   10   10   10

   0   0   0   0   0   0   0   0   0   0   0   3 2 11 18 
   6  10  10  10  10  10  10  10  10  10  10   1 3 
   5  10  10  10  10  10  10  10  10  10  10   2 21 4 
   5  10  10  10  10  10  10  10  10  10  10   1 5 
   2  10  10  10  10  10  10  10  10  10  10   1 6 
  10  10  10  10  10  10  10  10  10  10  10   2 15 7 
   3  10  10  10  10  10  10  10  10  10  10   1 8 
   1  10  10  10  10  10  10  10  10  10  10   1 9 
  10  10  10  10  10  10  10  10  10  10  10   1 10 
   2  10  10  10  10  10  10  10  10  10  10   2 17 12 
  10  10  10  10  10  10  10  10  10  10  10   2 17 12 
   6  10  10  10  10  10  10  10  10  10  10   2 20 13 
   1  10  10  10  10  10  10  10  10  10  10   1 14 
   4  10  10  10  10  10  10  10  10  10  10   1 16 
   6  10  10  10  10  10  10  10  10  10  10   1 17 
   5  10  10  10  10  10  10  10  10  10  10   1 19 
   8  10  10  10  10  10  10  10  10  10  10   1 20 
   3  10  10  10  10  10  10  10  10  10  10   1 19 
   6  10  10  10  10  10  10  10  10  10  10   1 22
   5  10  10  10  10  10  10  10  10  10  10   1 22
   7  10  10  10  10  10  10  10  10  10  10   1 22
   0   0   0   0   0   0   0   0   0   0   0   0 
